<number of tasks>
20


<number of equipment>
5


<cycle time>
1000


<investment costs>
1,23842
2,12194
3,6542
4,22160
5,14914


<task times>
1,143,209,-1,-1,232
2,205,-1,-1,221,412
3,146,211,-1,-1,244
4,144,-1,-1,172,186
5,154,-1,-1,233,323
6,-1,300,397,-1,-1
7,134,273,-1,-1,302
8,149,-1,-1,184,252
9,147,294,-1,-1,206
10,145,333,-1,-1,265
11,94,-1,-1,162,203
12,185,-1,-1,239,321
13,189,-1,-1,243,321
14,-1,487,482,-1,-1
15,384,-1,-1,244,362
16,137,-1,-1,164,214
17,175,298,-1,-1,251
18,170,311,-1,-1,240
19,149,-1,-1,161,310
20,-1,139,229,-1,-1


<precedence relations>
1,4
2,4
2,5
2,6
3,5
3,17
4,7
5,15
6,8
7,8
7,9
7,10
7,11
7,12
8,15
9,14
10,13
12,13
12,15
13,17
14,16
14,19
15,18
15,19
15,20


<task types>
1,2
2,3
3,2
4,3
5,3
6,1
7,2
8,3
9,2
10,2
11,3
12,3
13,3
14,1
15,3
16,3
17,2
18,2
19,3
20,1


<line depot>
1,1
2,2
3,1
4,0
5,5


<processing costs>
1,14400
2,14400
3,7200
4,7200
5,14400


<saving costs>
1,2384
2,1219
3,654
4,2216
5,1491


<end>
